c ---- [ banner ] ------------------------------------------------------------
c
c Kissat SAT Solver
c 
c Copyright (c) 2021-2024 Armin Biere University of Freiburg
c Copyright (c) 2019-2021 Armin Biere Johannes Kepler University Linz
c 
c Version 4.0.1 43f02cf3e992cb44653b35e5cb26f93281552ae0
c gcc (Ubuntu 13.2.0-23ubuntu4) 13.2.0 -W -Wall -O3 -DNDEBUG
c Thu Sep 12 12:27:46 CEST 2024 Linux abryzen9 6.8.0-41-generic x86_64
c
c ---- [ parsing ] -----------------------------------------------------------
c
c opened and reading DIMACS file:
c
c   /data/artifact/AMulet2.0_artifact/exp4/cnf_sopb_64/64_64_U_SP_WT_RC_GenMul_sopb.cnf
c
c parsed 'p cnf 29150 129114' header
c closing input after reading 2585992 bytes (2 MB)
c finished parsing after 0.03 seconds
c
c ---- [ options ] -----------------------------------------------------------
c
c --stable=0                       (different from default '1')
c
c ---- [ solving ] -----------------------------------------------------------
c
c  seconds switched rate     size/glue tier1  binary           remaining
c         MB reductions conflicts size  tier2     irredundant
c          level restarts redundant glue  trail           variables
c
c *  0.03 10 0 0 0  0 0   0   0 0.0 0 0 0 0 0% 11225 117887 29147 100%
c (  0.06 12 0 0 0  0 0   0   0 0.0 0 0 0 0 0% 11225 117887 29147 100%
c .  0.07 12 0 0 0  0 0   0   0 0.0 0 0 0 0 0% 11221 117887 29147 100%
c c  0.17 18 0 0 0  0 0   0   0 0.0 0 0 0 0 0% 16059 108465 26731 92%
c d  0.17 18 0 0 0  0 0   0   0 0.0 0 0 0 0 0% 11227 108465 26731 92%
c =  0.23 18 0 0 0  0 0   0   0 0.0 0 0 0 0 0% 11373 108463 26580 91%
c d  0.24 18 0 0 0  0 0   0   0 0.0 0 0 0 0 0% 11069 108463 26580 91%
c f  0.37 17 0 0 0  0 0   0   0 0.0 0 0 0 0 0% 16262 100291 29519 101%
c e  0.58 23 0 0 0  0 0   0   0 0.0 0 0 0 0 0% 10538 108563 20552 71%
c )  0.58 23 0 0 0  0 0   0   0 0.0 0 0 0 0 0% 10538 108563 20552 71%
c {  0.60 23 0 0 0  0 0   0   0 0.0 0 0 2 6 0% 10538 108563 20552 71%
c -  0.77 24 163 0 1 229 33 1000 676 3.0 12 4 3 8 15% 10659 108558 20552 71%
c -  1.15 24 284 0 2 408 41 2001 1387 4.1 22 5 3 10 20% 10690 108557 20552 71%
c c  1.35 22 331 0 2 486 42 2504 1812 4.2 22 5 3 10 21% 10731 108551 20551 71%
c d  1.36 22 331 0 2 486 42 2504 1812 4.2 22 5 3 10 21% 10729 108551 20551 71%
c u  1.38 22 331 0 2 486 42 2504 1437 4.2 22 5 3 10 21% 10743 108551 20551 71%
c v  1.40 23 331 0 2 486 42 2504 1258 4.2 22 5 3 10 21% 10744 108551 20551 71%
c w  1.42 23 331 0 2 486 42 2504 1258 4.2 22 5 3 10 21% 10744 108551 20551 71%
c x  1.44 23 331 0 2 486 42 2504 1257 4.2 22 5 3 10 21% 10879 108197 20551 71%
c =  1.52 23 331 0 2 486 42 2504 1257 4.2 22 5 3 10 21% 11217 108197 20382 70%
c
c  seconds   switched   rate       size/glue tier1     binary           remaining
c         MB  reductions conflicts       size  tier2       irredundant
c           level restarts    redundant    glue    trail           variables
c
c d  1.53 23 331 0 2 486 42 2504 1241 4.2 22 5 3 10 21% 10872 108197 20381 70%
c t  1.54 23 331 0 2 486 42 2504 1241 4.2 22 5 3 10 21% 10869 108197 20381 70%
c f  1.57 23 331 0 2 486 42 2504 1241 4.2 22 5 3 10 21% 11466 106983 20984 72%
c u  1.61 23 331 0 2 486 42 2504 1201 4.2 22 5 3 10 21% 11468 106983 20984 72%
c v  1.63 23 331 0 2 486 42 2504 1167 4.2 22 5 3 10 21% 11468 106983 20984 72%
c w  1.68 23 331 0 2 486 42 2504 1161 4.2 22 5 3 10 21% 11468 106983 20984 72%
c x  1.70 23 331 0 2 486 42 2504 1161 4.2 22 5 3 10 21% 11470 106831 20984 72%
c =  1.79 23 331 0 2 486 42 2504 1161 4.2 22 5 3 10 21% 11594 106831 20922 72%
c d  1.80 23 331 0 2 486 42 2504 1158 4.2 22 5 3 10 21% 11467 106831 20922 72%
c f  1.84 23 331 0 2 486 42 2504 1158 4.2 22 5 3 10 21% 12469 105308 21428 74%
c -  2.07 24 410 0 3 582 40 3415 1715 4.1 21 5 3 10 20% 12550 105297 21428 74%
c -  2.49 24 447 0 4 748 39 5150 2941 3.9 19 5 3 9 20% 12652 105293 21428 74%
c -  3.09 24 406 0 5 1028 40 7150 4193 3.7 18 5 2 9 21% 12702 105293 21428 74%
c c  3.20 24 396 0 5 1069 39 7710 4611 3.7 18 5 2 9 21% 12752 105190 21403 73%
c d  3.20 24 396 0 5 1069 39 7710 4591 3.7 18 5 2 9 21% 12702 105190 21403 73%
c u  3.22 24 396 0 5 1069 39 7710 3986 3.7 18 5 2 9 21% 12726 105190 21403 73%
c v  3.24 24 396 0 5 1069 39 7710 3486 3.7 18 5 2 9 21% 12727 105190 21403 73%
c w  3.26 24 396 0 5 1069 39 7710 3481 3.7 18 5 2 9 21% 12727 105190 21403 73%
c x  3.29 24 396 0 5 1069 39 7710 3481 3.7 18 5 2 9 21% 12728 105067 21403 73%
c =  3.41 24 396 0 5 1069 39 7710 3481 3.7 18 5 2 9 21% 13388 105067 21073 72%
c
c  seconds   switched    rate       size/glue tier1    binary           remaining
c         MB  reductions  conflicts       size  tier2      irredundant
c           level  restarts    redundant    glue   trail           variables
c
c d  3.42 24 396 0 5 1069 39 7710 3475 3.7 18 5 2 9 21% 12614 105067 21070 72%
c t  3.44 24 396 0 5 1069 39 7710 3475 3.7 18 5 2 9 21% 12596 105067 21070 72%
c f  3.48 24 396 0 5 1069 39 7710 3475 3.7 18 5 2 9 21% 12833 104690 21200 73%
c c  3.57 24 396 0 5 1069 39 7710 3474 3.7 18 5 2 9 21% 12836 104682 21199 73%
c d  3.58 24 396 0 5 1069 39 7710 3474 3.7 18 5 2 9 21% 12834 104682 21199 73%
c u  3.61 24 396 0 5 1069 39 7710 3376 3.7 18 5 2 9 21% 12841 104682 21199 73%
c v  3.64 24 396 0 5 1069 39 7710 3290 3.7 18 5 2 9 21% 12842 104682 21199 73%
c w  3.67 24 396 0 5 1069 39 7710 3285 3.7 18 5 2 9 21% 12842 104682 21199 73%
c =  3.79 24 396 0 5 1069 39 7710 3285 3.7 18 5 2 9 21% 13308 104682 20966 72%
c d  3.81 24 396 0 5 1069 39 7710 3282 3.7 18 5 2 9 21% 12742 104682 20966 72%
c t  3.83 24 396 0 5 1069 39 7710 3282 3.7 18 5 2 9 21% 12674 104682 20966 72%
c f  3.87 24 396 0 5 1069 39 7710 3282 3.7 18 5 2 9 21% 14722 101607 21991 75%
c i  4.30 24 408 0 5 1270 43 8951 4323 3.9 20 5 2 9 21% 14778 101603 21990 75%
c i  4.30 24 408 0 5 1270 43 8970 4338 3.9 20 5 2 9 21% 14779 101602 21989 75%
c -  4.40 24 408 0 6 1310 43 9386 4188 3.9 20 5 2 8 21% 14794 101601 21988 75%
c o  4.57 24 404 0 6 1363 42 10002 4713 3.9 20 5 2 8 22% 14820 101601 21988 75%
c -  5.33 24 375 0 7 1649 42 11835 5495 4.1 22 5 2 8 23% 14913 101600 21988 75%
c s  5.73 24 366 0 7 1802 43 12512 6091 4.2 24 6 2 8 23% 14934 97716 21988 75%
c e  5.87 24 366 0 7 1802 43 12512 6091 4.2 24 6 2 8 23% 14163 98283 21264 73%
c s  5.88 24 366 0 7 1802 43 12512 6091 4.2 24 6 2 8 23% 14175 97893 21264 73%
c
c  seconds   switched    rate        size/glue tier1    binary          remaining
c         MB  reductions   conflicts       size  tier2      irredundant
c           level  restarts     redundant    glue   trail          variables
c
c e  5.89 24 366 0 7 1802 43 12512 6091 4.2 24 6 2 8 23% 13994 97982 21171 73%
c ^  5.89 24 366 0 7 1802 43 12512 6091 4.2 24 6 2 8 23% 13994 97982 21171 73%
c -  6.60 24 348 0 8 2014 40 14480 6464 4.3 25 6 2 8 24% 14076 97982 21171 73%
c d  6.93 24 365 0 8 2142 40 15793 7585 4.3 25 6 2 8 24% 13740 97979 20950 72%
c u  6.98 24 365 0 8 2142 40 15793 6605 4.3 25 6 2 8 24% 13773 97979 20950 72%
c v  7.04 24 365 0 8 2142 40 15793 5722 4.3 25 6 2 8 24% 13775 97979 20950 72%
c w  7.16 24 365 0 8 2142 40 15793 5720 4.3 25 6 2 8 24% 13775 97979 20950 72%
c x  7.21 24 365 0 8 2142 40 15793 5720 4.3 25 6 2 8 24% 13785 97903 20950 72%
c =  7.48 24 365 0 8 2142 40 15793 5720 4.3 25 6 2 8 24% 14743 97898 20469 70%
c d  7.49 24 365 0 8 2142 40 15793 5663 4.3 25 6 2 8 24% 13654 97897 20466 70%
c t  7.52 24 365 0 8 2142 40 15793 5663 4.3 25 6 2 8 24% 13530 97897 20466 70%
c f  7.60 24 365 0 8 2142 40 15793 5663 4.3 25 6 2 8 24% 13568 97805 20491 70%
c u  7.72 24 365 0 8 2142 40 15793 5452 4.3 25 6 2 8 24% 13568 97805 20491 70%
c v  7.76 24 365 0 8 2142 40 15793 5352 4.3 25 6 2 8 24% 13568 97805 20491 70%
c w  7.89 24 365 0 8 2142 40 15793 5330 4.3 25 6 2 8 24% 13568 97805 20491 70%
c =  8.16 24 365 0 8 2142 40 15793 5330 4.3 25 6 2 8 24% 15810 97805 19370 66%
c d  8.17 24 365 0 8 2142 40 15793 5279 4.3 25 6 2 8 24% 12639 97805 19370 66%
c t  8.20 24 365 0 8 2142 40 15793 5279 4.3 25 6 2 8 24% 12628 97805 19370 66%
c -  8.60 25 365 0 9 2272 39 17308 5946 4.3 25 6 2 7 24% 12659 97804 19370 66%
c o  9.20 25 364 0 9 2483 38 20245 8439 4.1 24 6 2 7 24% 12736 97799 19370 66%
c
c  seconds   switched     rate        size/glue tier1    binary          remaining
c         MB   reductions   conflicts       size  tier2      irredundant
c           level   restarts     redundant    glue   trail          variables
c
c -  9.27 25 364 0 10 2500 38 20309 7643 4.1 24 6 2 7 24% 12736 97799 19370 66%
c - 10.40 25 350 0 11 2935 39 23472 9193 4.3 27 6 2 7 24% 12830 97799 19370 66%
c s 10.62 25 352 0 11 2992 37 25020 10495 4.2 26 6 2 7 24% 12911 92715 19370 66%
c e 10.74 25 352 0 11 2992 37 25020 10495 4.2 26 6 2 7 24% 10676 95244 18111 62%
c s 10.75 25 352 0 11 2992 37 25020 10495 4.2 26 6 2 7 24% 10689 94985 18111 62%
c e 10.77 25 352 0 11 2992 37 25020 10495 4.2 26 6 2 7 24% 10678 94998 18107 62%
c ^ 10.77 25 352 0 11 2992 37 25020 10495 4.2 26 6 2 7 24% 10678 94998 18107 62%
c - 11.29 25 344 0 12 3189 37 26788 9888 4.2 26 6 2 7 24% 10736 94997 18107 62%
c d 11.32 25 342 0 12 3213 37 26922 9995 4.2 26 6 2 7 24% 10665 94997 18069 62%
c u 11.38 25 342 0 12 3213 37 26922 8588 4.2 26 6 2 7 24% 10687 94997 18069 62%
c v 11.44 25 342 0 12 3213 37 26922 7639 4.2 26 6 2 7 24% 10689 94997 18069 62%
c w 11.45 25 342 0 12 3213 37 26922 7634 4.2 26 6 2 7 24% 10689 94997 18069 62%
c = 11.73 25 342 0 12 3213 37 26922 7634 4.2 26 6 2 7 24% 13229 94989 16799 58%
c d 11.75 25 342 0 12 3213 37 26922 7376 4.2 26 6 2 7 24% 10566 94989 16798 58%
c t 11.77 25 342 0 12 3213 37 26922 7376 4.2 26 6 2 7 24% 10523 94989 16798 58%
c f 11.84 25 342 0 12 3213 37 26922 7376 4.2 26 6 2 7 24% 10566 94845 16827 58%
c u 11.90 25 342 0 12 3213 37 26922 7009 4.2 26 6 2 7 24% 10567 94845 16827 58%
c v 11.94 25 342 0 12 3213 37 26922 6894 4.2 26 6 2 7 24% 10567 94845 16827 58%
c w 11.95 25 342 0 12 3213 37 26922 6889 4.2 26 6 2 7 24% 10567 94845 16827 58%
c x 12.06 25 342 0 12 3213 37 26922 6887 4.2 26 6 2 7 24% 10651 87924 16827 58%
c
c  seconds   switched     rate        size/glue tier1    binary          remaining
c         MB   reductions   conflicts       size  tier2      irredundant
c           level   restarts     redundant    glue   trail          variables
c
c = 12.31 25 342 0 12 3213 37 26922 6887 4.2 26 6 2 7 24% 11283 87924 16511 57%
c d 12.31 25 342 0 12 3213 37 26922 6862 4.2 26 6 2 7 24% 10630 87923 16509 57%
c t 12.33 25 342 0 12 3213 37 26922 6862 4.2 26 6 2 7 24% 10602 87923 16508 57%
c f 12.34 25 342 0 12 3213 37 26922 6862 4.2 26 6 2 7 24% 10605 87906 16512 57%
c - 12.99 25 331 0 13 3546 37 30253 8824 4.1 26 6 2 7 24% 10646 87903 16512 57%
c - 13.61 25 324 0 14 3829 36 33858 10739 4.1 26 6 2 6 24% 10738 87898 16512 57%
c - 14.37 25 314 0 15 4158 35 37600 12511 4.0 26 6 2 6 24% 10802 87896 16512 57%
c o 15.27 25 307 0 15 4527 35 40295 14827 4.1 27 7 2 6 24% 10873 87896 16512 57%
c c 15.70 25 306 0 15 4673 36 41248 15655 4.1 28 7 2 6 24% 11018 87176 16373 56%
c d 15.70 25 306 0 15 4673 36 41248 15280 4.1 28 7 2 6 24% 10740 87176 16373 56%
c u 15.78 25 306 0 15 4673 36 41248 13076 4.1 28 7 2 6 24% 10752 87176 16373 56%
c v 15.87 25 306 0 15 4673 36 41248 11598 4.1 28 7 2 6 24% 10759 87176 16373 56%
c w 16.09 25 306 0 15 4673 36 41248 11595 4.1 28 7 2 6 24% 10759 87176 16373 56%
c = 16.39 25 306 0 15 4673 36 41248 11595 4.1 28 7 2 6 24% 10761 87176 16372 56%
c d 16.40 25 306 0 15 4673 36 41248 11585 4.1 28 7 2 6 24% 10741 87176 16363 56%
c t 16.42 25 306 0 15 4673 36 41248 11585 4.1 28 7 2 6 24% 10726 87176 16363 56%
c f 16.44 25 306 0 15 4673 36 41248 11585 4.1 28 7 2 6 24% 10734 87156 16367 56%
c u 16.52 25 306 0 15 4673 36 41248 11091 4.1 28 7 2 6 24% 10743 87156 16367 56%
c v 16.57 25 306 0 15 4673 36 41248 10891 4.1 28 7 2 6 24% 10743 87156 16367 56%
c w 16.75 25 306 0 15 4673 36 41248 10885 4.1 28 7 2 6 24% 10743 87156 16367 56%
c
c  seconds   switched     rate         size/glue tier1    binary          remaining
c         MB   reductions   conflicts        size  tier2      irredundant
c           level   restarts      redundant    glue   trail          variables
c
c x 16.85 25 306 0 15 4673 36 41248 10885 4.1 28 7 2 6 24% 10743 82709 16367 56%
c t 16.88 25 306 0 15 4673 36 41248 10885 4.1 28 7 2 6 24% 10739 82709 16367 56%
c - 16.95 25 306 0 16 4691 36 41472 9905 4.1 28 7 2 6 24% 10740 82709 16367 56%
c - 17.53 25 296 0 17 4914 34 45472 11809 3.9 27 7 2 6 23% 10858 82702 16367 56%
c - 18.26 25 289 0 18 5178 33 49599 13809 3.9 27 7 2 6 23% 10951 82702 16367 56%
c s 19.07 25 284 0 18 5474 33 52122 16009 3.9 27 7 2 6 24% 11012 81433 16367 56%
c e 19.19 25 284 0 18 5474 33 52122 16009 3.9 27 7 2 6 24% 9940 82949 15818 54%
c 2 19.19 25 284 0 18 5474 33 52122 16009 3.9 27 7 2 6 24% 9939 82949 15818 54%
c s 19.20 25 284 0 18 5474 33 52122 16009 3.9 27 7 2 6 24% 9947 82462 15818 54%
c e 19.21 25 284 0 18 5474 33 52122 16009 3.9 27 7 2 6 24% 9932 82481 15813 54%
c ^ 19.21 25 284 0 18 5474 33 52122 16009 3.9 27 7 2 6 24% 9932 82481 15813 54%
c - 19.68 25 280 0 19 5619 33 53841 14245 3.9 27 7 2 6 24% 9969 82481 15813 54%
c - 20.66 25 272 0 20 6002 32 58199 15976 3.8 27 7 2 6 24% 10061 82481 15813 54%
c c 20.91 25 272 0 20 6069 32 58877 16516 3.8 27 7 2 6 24% 10226 81436 15660 54%
c d 20.92 25 272 0 20 6069 32 58877 16146 3.8 27 7 2 6 24% 9920 81436 15660 54%
c u 21.01 25 272 0 20 6069 32 58877 13357 3.8 27 7 2 6 24% 9944 81436 15660 54%
c v 21.10 25 272 0 20 6069 32 58877 11977 3.8 27 7 2 6 24% 9949 81436 15660 54%
c w 21.18 25 272 0 20 6069 32 58877 11959 3.8 27 7 2 6 24% 9949 81436 15660 54%
c x 21.28 25 272 0 20 6069 32 58877 11957 3.8 27 7 2 6 24% 9961 81077 15660 54%
c = 21.64 25 272 0 20 6069 32 58877 11957 3.8 27 7 2 6 24% 10865 81077 15208 52%
c
c  seconds   switched     rate         size/glue tier1    binary         remaining
c         MB   reductions   conflicts        size  tier2     irredundant
c           level   restarts      redundant    glue   trail         variables
c
c d 21.65 25 272 0 20 6069 32 58877 11713 3.8 27 7 2 6 24% 9898 81077 15201 52%
c t 21.67 25 272 0 20 6069 32 58877 11713 3.8 27 7 2 6 24% 9827 81077 15201 52%
c f 21.73 25 272 0 20 6069 32 58877 11713 3.8 27 7 2 6 24% 9834 81005 15212 52%
c c 21.80 25 272 0 20 6069 32 58877 11712 3.8 27 7 2 6 24% 9838 80997 15211 52%
c d 21.81 25 272 0 20 6069 32 58877 11712 3.8 27 7 2 6 24% 9836 80997 15211 52%
c u 21.88 25 272 0 20 6069 32 58877 10950 3.8 27 7 2 6 24% 9847 80997 15211 52%
c v 21.94 25 272 0 20 6069 32 58877 10709 3.8 27 7 2 6 24% 9848 80997 15211 52%
c w 22.02 25 272 0 20 6069 32 58877 10684 3.8 27 7 2 6 24% 9848 80997 15211 52%
c x 22.15 25 272 0 20 6069 32 58877 10680 3.8 27 7 2 6 24% 9876 78090 15211 52%
c = 22.54 25 272 0 20 6069 32 58877 10680 3.8 27 7 2 6 24% 12496 78090 13901 48%
c d 22.55 25 272 0 20 6069 32 58877 10338 3.8 27 7 2 6 24% 9805 78090 13899 48%
c t 22.57 25 272 0 20 6069 32 58877 10338 3.8 27 7 2 6 24% 9645 78090 13899 48%
c f 22.62 25 272 0 20 6069 32 58877 10338 3.8 27 7 2 6 24% 9697 77793 13939 48%
c - 23.33 25 267 0 21 6358 31 62671 12349 3.8 27 7 2 6 24% 9759 77790 13939 48%
c - 24.41 25 259 0 22 6819 31 67254 14713 3.8 27 7 2 6 24% 9865 77787 13939 48%
c o 24.64 25 255 0 22 6905 30 70451 17289 3.7 26 7 2 6 23% 9954 77787 13939 48%
c - 24.82 25 251 0 23 6991 29 71944 14762 3.7 26 7 1 6 23% 9981 77787 13939 48%
c - 25.87 25 242 0 24 7428 29 76741 15474 3.6 25 7 1 6 23% 10056 77787 13939 48%
c d 26.66 25 237 0 24 7773 28 79941 18001 3.6 26 7 1 6 23% 9833 77786 13805 47%
c u 26.73 25 237 0 24 7773 28 79941 15789 3.6 26 7 1 6 23% 9853 77786 13805 47%
c
c  seconds   switched     rate         size/glue tier1    binary         remaining
c         MB   reductions   conflicts        size  tier2     irredundant
c           level   restarts      redundant    glue   trail         variables
c
c v 26.85 25 237 0 24 7773 28 79941 13073 3.6 26 7 1 6 23% 9866 77786 13805 47%
c w 26.95 25 237 0 24 7773 28 79941 13073 3.6 26 7 1 6 23% 9866 77786 13805 47%
c x 27.07 25 237 0 24 7773 28 79941 13070 3.6 26 7 1 6 23% 9876 69845 13805 47%
c = 27.23 25 237 0 24 7773 28 79941 13070 3.6 26 7 1 6 23% 9968 69845 13759 47%
c d 27.24 25 237 0 24 7773 28 79941 12937 3.6 26 7 1 6 23% 9850 69845 13747 47%
c t 27.26 25 237 0 24 7773 28 79941 12937 3.6 26 7 1 6 23% 9786 69845 13747 47%
c f 27.28 25 237 0 24 7773 28 79941 12937 3.6 26 7 1 6 23% 9790 69825 13750 47%
c c 27.34 25 237 0 24 7773 28 79941 12903 3.6 26 7 1 6 23% 9817 69729 13738 47%
c d 27.35 25 237 0 24 7773 28 79941 12903 3.6 26 7 1 6 23% 9793 69729 13738 47%
c u 27.41 25 237 0 24 7773 28 79941 12353 3.6 26 7 1 6 23% 9797 69729 13738 47%
c v 27.48 25 237 0 24 7773 28 79941 11709 3.6 26 7 1 6 23% 9801 69729 13738 47%
c w 27.65 25 237 0 24 7773 28 79941 11681 3.6 26 7 1 6 23% 9801 69729 13738 47%
c x 27.75 25 237 0 24 7773 28 79941 11676 3.6 26 7 1 6 23% 9824 67713 13738 47%
c = 28.17 25 237 0 24 7773 28 79941 11676 3.6 26 7 1 6 23% 10472 67689 13413 46%
c d 28.18 25 237 0 24 7773 28 79941 11220 3.6 26 7 1 6 23% 9735 67689 13413 46%
c t 28.20 25 237 0 24 7773 28 79941 11220 3.6 26 7 1 6 23% 9690 67689 13413 46%
c f 28.22 25 237 0 24 7773 28 79941 11220 3.6 26 7 1 6 23% 9697 67643 13419 46%
c - 28.44 25 235 0 25 7856 28 81639 10709 3.6 26 7 1 5 23% 9716 67641 13419 46%
c - 29.51 25 231 0 26 8311 27 86640 13036 3.6 26 7 1 5 23% 9764 67638 13419 46%
c - 30.55 25 226 0 27 8736 27 91739 15081 3.6 26 7 1 5 23% 9813 67638 13419 46%
c
c  seconds   switched     rate         size/glue tier1    binary         remaining
c         MB   reductions   conflicts        size  tier2     irredundant
c           level   restarts      redundant    glue   trail         variables
c
c i 31.15 25 226 0 27 9010 27 94674 17662 3.6 26 7 1 5 23% 9848 67638 13417 46%
c s 31.52 25 224 0 27 9152 27 95781 18698 3.6 26 7 1 5 24% 9860 65842 13417 46%
c e 31.65 25 224 0 27 9152 27 95781 18698 3.6 26 7 1 5 24% 6374 74012 11687 40%
c 2 31.65 25 224 0 27 9152 27 95781 18698 3.6 26 7 1 5 24% 6367 74012 11687 40%
c s 31.68 25 224 0 27 9152 27 95781 18698 3.6 26 7 1 5 24% 6394 73427 11687 40%
c e 31.69 25 224 0 27 9152 27 95781 18698 3.6 26 7 1 5 24% 6355 73529 11667 40%
c ^ 31.69 25 224 0 27 9152 27 95781 18698 3.6 26 7 1 5 24% 6355 73529 11667 40%
c - 31.89 25 223 0 28 9232 27 96935 11888 3.5 26 7 1 5 24% 6367 73529 11667 40%
c - 33.19 25 217 0 29 9868 26 102226 14280 3.5 26 7 1 5 24% 6416 73528 11667 40%
c d 33.56 25 215 0 29 10026 26 104597 16314 3.5 25 7 1 5 24% 6371 73528 11634 40%
c u 33.62 25 215 0 29 10026 26 104597 14542 3.5 25 7 1 5 24% 6384 73528 11634 40%
c v 33.72 25 215 0 29 10026 26 104597 12125 3.5 25 7 1 5 24% 6391 73528 11634 40%
c w 33.86 25 215 0 29 10026 26 104597 11826 3.5 25 7 1 5 24% 6392 73528 11634 40%
c x 33.95 25 215 0 29 10026 26 104597 11819 3.5 25 7 1 5 24% 6405 73435 11634 40%
c = 34.37 25 215 0 29 10026 26 104597 11819 3.5 25 7 1 5 24% 6861 72983 11350 39%
c } 34.37 25 215 0 29 10026 26 104597 11819 3.5 25 7 1 5 24% 6861 72983 11573 40%
c 0 34.37 25 215 0 29 10026 26 104597 11819 3.5 25 7 1 5 24% 6861 72983 11573 40%
c
c ---- [ result ] ------------------------------------------------------------
c
s UNSATISFIABLE
c
c ---- [ profiling ] ---------------------------------------------------------
c
c          23.89   69.52 %  search
c          23.89   69.52 %  focused
c           9.87   28.73 %  simplify
c           9.43   27.44 %  probe
c           3.74   10.87 %  vivify
c           3.57   10.39 %  sweep
c           0.75    2.18 %  eliminate
c           0.73    2.12 %  factor
c           0.63    1.83 %  congruence
c           0.55    1.59 %  substitute
c           0.52    1.50 %  preprocess
c           0.20    0.58 %  fastel
c           0.20    0.58 %  reduce
c           0.14    0.41 %  subsume
c           0.14    0.41 %  transitive
c           0.08    0.22 %  backbone
c           0.05    0.16 %  lucky
c           0.03    0.10 %  parse
c =============================================
c          34.37  100.00 %  total
c
c ---- [ statistics ] --------------------------------------------------------
c
c chronological:                         5995                6 %  conflicts
c conflicts:                           104597             3043.57 per second
c congruent:                             2748                9 %  variables
c decisions:                          2745141               26.24 per conflict
c eliminated:                           13351               46 %  variables
c factored:                              5325               18 %  variables
c fast_eliminated:                       8967               67 %  eliminated
c fast_strengthened:                       45                3 %  per strengthened
c fast_subsumed:                           49                0 %  per subsumed
c iterations:                               3                0 %  variables
c propagations:                      99391784          2892112    per second
c reductions:                              29             3607    interval
c reordered:                                4            26149    interval
c restarts:                             10026               10    interval
c strengthened:                          1639                0 %  checks
c substituted:                           9476               33 %  variables
c subsumed:                             13718                1 %  checks
c switched:                                 0                0    interval
c vivified:                             61332               15 %  checks
c
c ---- [ glue usage ] --------------------------------------------------------
c
c focused glue 1 used 127300 clauses 54.79% accumulated 54.79% tier1
c focused glue 2 used  50315 clauses 21.66% accumulated 76.45%
c focused glue 3 used  16080 clauses  6.92% accumulated 83.37%
c focused glue 4 used   9893 clauses  4.26% accumulated 87.62%
c focused glue 5 used   6488 clauses  2.79% accumulated 90.42% tier2
c
c ---- [ resources ] ---------------------------------------------------------
c
c maximum-resident-set-size:         25911296 bytes         25 MB
c process-time:                            34s              34.37 seconds
c
c ---- [ shutting down ] -----------------------------------------------------
c
c exit 20
